Maximize
  - 39 x0 + 0 x1 + 0 x2 + 0 x3 + 0 x4 + 0 x5 + 0 x6 + 0 x7 + 0 x8 + 0 x9
   + 0 x10 + 0 x11 + 0 x12 + 0 x13 + 0 x14 + 0 x15 - 18 x16 + 20 x17
   + 0 x18 + 0 x19 + 0 x20 - 42 x21 + 0 x22 + 0 x23 + 0 x24 + 0 x25 + 0 x26
   + 0 x27 + 0 x28 + 0 x29 + 0 x30 + 35 x31 + 0 x32 + 0 x33 - 49 x34
   + 0 x35 - 17 x36 + 0 x37 + 0 x38 + 0 x39 + 0 x40 + 0 x41 + 0 x42 + 0 x43
   + 0 x44 + 0 x45 - 25 x46 - 40 x47 + 0 x48 - 6 x49 + 0 x50 + 0 x51
   + 0 x52 + 0 x53 + 0 x54 + 0 x55 + 0 x56 + 0 x57 + 0 x58 + 0 x59 + [
   37 x0 ^2 + 34 x0 * x5 + 78 x0 * x10 + 46 x0 * x13 + 40 x0 * x18
   + 42 x0 * x21 + 66 x0 * x30 - 36 x0 * x34 - 62 x0 * x42 + 4 x0 * x54
   - 44 x0 * x58 - 72 x1 * x6 + 26 x1 * x10 - 64 x1 * x12 - 82 x1 * x13
   + 64 x1 * x21 - 42 x1 * x23 + 20 x1 * x26 - 48 x1 * x29 + 36 x1 * x39
   + 26 x1 * x41 - 12 x1 * x55 + 42 x1 * x58 - 48 x2 * x16 + 62 x2 * x20
   + 14 x2 * x27 + 44 x2 * x36 - 6 x2 * x37 - 24 x2 * x47 - 70 x2 * x49
   + 40 x3 ^2 - 98 x3 * x4 - 8 x3 * x5 + 94 x3 * x9 + 78 x3 * x14
   - 34 x3 * x15 - 58 x3 * x16 + 70 x3 * x18 + 92 x3 * x25 + 30 x3 * x30
   + 2 x3 * x33 - 70 x3 * x38 + 86 x3 * x42 - 96 x3 * x49 - 16 x3 * x50
   - 4 x3 * x52 + 30 x3 * x55 - 68 x4 * x6 + 46 x4 * x13 - 84 x4 * x27
   + 80 x4 * x32 + 6 x4 * x40 - 50 x4 * x43 + 78 x4 * x53 - 94 x4 * x57
   + 20 x5 * x11 + 90 x5 * x20 + 82 x5 * x23 - 92 x5 * x30 - 34 x5 * x33
   + 76 x5 * x35 - 10 x5 * x47 + 76 x5 * x52 + 28 x5 * x59 + 60 x6 * x7
   + 92 x6 * x16 + 62 x6 * x31 + 34 x6 * x35 + 16 x6 * x41 + 76 x6 * x42
   + 50 x6 * x50 + 80 x7 * x10 - 56 x7 * x12 + 18 x7 * x15 + 38 x7 * x16
   - 6 x7 * x34 + 54 x7 * x35 - 90 x7 * x36 + 70 x7 * x42 + 42 x7 * x49
   + 60 x7 * x56 + 98 x8 * x27 + 80 x8 * x29 - 14 x8 * x33 + 50 x8 * x36
   - 90 x8 * x42 + 30 x8 * x50 + 2 x8 * x57 + 86 x8 * x59 + 96 x9 * x14
   + 14 x9 * x15 - 26 x9 * x16 - 70 x9 * x22 + 52 x9 * x26 + 32 x9 * x27
   + 72 x9 * x30 + 18 x9 * x36 + 22 x9 * x40 + 4 x9 * x41 - 4 x9 * x48
   + 60 x10 * x14 + 80 x10 * x22 + 80 x10 * x29 - 84 x10 * x30
   + 20 x10 * x35 - 8 x10 * x37 - 98 x10 * x40 + 48 x10 * x45
   + 74 x10 * x55 - 26 x11 * x15 + 48 x11 * x16 + 10 x11 * x17
   + 74 x11 * x23 - 26 x11 * x40 - 2 x11 * x44 - 22 x11 * x45
   + 48 x12 * x23 - 70 x12 * x25 - 20 x12 * x42 - 90 x12 * x44
   + 14 x12 * x53 + 34 x13 * x21 + 10 x13 * x25 + 56 x13 * x26
   - 70 x13 * x27 + 26 x13 * x29 - 88 x13 * x32 + 72 x13 * x39
   - 66 x13 * x44 - 18 x13 * x47 + 20 x13 * x50 - 30 x13 * x56
   - 36 x14 * x15 - 18 x14 * x17 + 70 x14 * x18 - 88 x14 * x22
   - 2 x14 * x23 + 8 x14 * x27 + 88 x14 * x40 + 38 x14 * x45 + 32 x14 * x47
   - 22 x14 * x53 - 32 x14 * x55 + 22 x15 * x16 - 2 x15 * x17
   - 26 x15 * x18 + 24 x15 * x21 + 4 x15 * x27 + 16 x15 * x51
   + 42 x15 * x58 + 76 x15 * x59 + 84 x16 * x23 - 26 x16 * x29
   - 22 x16 * x32 + 64 x16 * x37 + 74 x16 * x43 + 26 x16 * x45
   - 12 x16 * x50 - 22 x16 * x54 - 66 x16 * x57 + 82 x17 * x18
   + 22 x17 * x22 + 52 x17 * x25 - 16 x17 * x35 - 66 x17 * x37
   - 24 x17 * x39 + 20 x17 * x43 + 96 x17 * x50 + 98 x17 * x55
   - 98 x17 * x58 - 76 x17 * x59 - 70 x18 * x21 + 94 x18 * x22
   - 98 x18 * x30 + 42 x18 * x32 - 16 x18 * x35 + 26 x18 * x36
   + 44 x18 * x42 + 6 x18 * x45 - 82 x18 * x48 - 28 x18 * x55
   + 98 x18 * x59 - 46 x19 * x43 + 36 x19 * x50 - 80 x20 * x28
   + 78 x20 * x52 + 32 x20 * x59 - 33 x21 ^2 + 82 x21 * x22 - 28 x21 * x23
   - 84 x21 * x25 + 68 x21 * x41 - 24 x21 * x43 - 70 x21 * x44
   - 90 x21 * x48 - 18 x21 * x54 - 88 x21 * x58 - 44 x22 * x24
   - 54 x22 * x27 - 62 x22 * x42 + 62 x22 * x43 + 70 x22 * x45
   + 12 x22 * x48 + 50 x22 * x52 - 28 x22 * x54 - 62 x22 * x56
   + 92 x23 * x25 - 68 x23 * x26 + 70 x23 * x28 - 16 x23 * x30
   - 76 x23 * x32 - 76 x23 * x34 + 66 x23 * x45 - 2 x23 * x50
   - 34 x23 * x53 + 12 x23 * x58 + 16 x24 * x25 - 92 x24 * x27
   + 2 x24 * x29 + 32 x24 * x30 + 16 x24 * x36 + 8 x24 * x43 + 44 x24 * x53
   - 34 x24 * x54 - 88 x25 * x27 + 16 x25 * x33 - 96 x25 * x41
   + 24 x25 * x42 - 60 x25 * x43 - 62 x25 * x47 + 40 x25 * x48
   + 2 x25 * x52 - 28 x25 * x53 - 10 x25 * x54 - 2 x26 * x33 - 16 x26 * x36
   - 40 x26 * x41 - 26 x26 * x43 + 2 x26 * x48 + 16 x26 * x57 - 8 x27 ^2
   - 98 x27 * x35 + 86 x27 * x47 - 94 x27 * x49 - 78 x27 * x50
   - 40 x27 * x54 + 4 x27 * x55 - 54 x27 * x56 - 72 x27 * x57 - 2 x28 * x35
   - 50 x28 * x38 + 22 x28 * x42 + 32 x28 * x52 - 30 x29 * x35
   - 46 x29 * x39 - 76 x29 * x46 - 98 x29 * x54 + 16 x30 * x31
   - 80 x30 * x34 - 62 x30 * x48 - 94 x30 * x50 + 84 x30 * x51
   - 58 x31 * x33 + 20 x31 * x36 + 72 x31 * x39 - 12 x31 * x45
   + 4 x31 * x48 - 26 x31 * x55 - 58 x31 * x57 + 90 x31 * x58
   + 14 x31 * x59 - 2 x32 * x34 - 94 x32 * x46 + 54 x32 * x52
   + 30 x32 * x55 - 2 x32 * x58 + 66 x32 * x59 + 86 x33 * x39
   + 52 x33 * x43 - 2 x33 * x46 + 28 x33 * x49 + 64 x33 * x59
   - 68 x34 * x37 + 96 x34 * x39 - 32 x34 * x40 - 54 x34 * x43
   + 12 x34 * x52 - 84 x34 * x54 + 72 x34 * x55 + 58 x34 * x56
   - 22 x35 * x36 - 18 x35 * x44 + 54 x35 * x46 + 22 x35 * x49
   - 34 x35 * x55 - 62 x35 * x58 + 37 x36 ^2 - 10 x36 * x42 - 72 x36 * x44
   - 16 x36 * x45 - 86 x36 * x46 - 26 x36 * x49 + 76 x36 * x51
   + 64 x36 * x57 - 46 x36 * x59 + 28 x37 * x39 + 28 x37 * x42
   + 94 x37 * x51 - 34 x37 * x53 + 44 x37 * x54 + 82 x37 * x57
   + 94 x38 * x54 + 46 x38 * x56 - 64 x39 * x40 + 50 x39 * x43
   + 50 x39 * x54 - 60 x39 * x59 - 25 x40 ^2 + 86 x40 * x48 + 24 x40 * x53
   - 6 x40 * x54 + 28 x41 * x43 + 70 x41 * x58 + 46 x42 * x45 - 8 x42 * x54
   + 8 x42 * x56 - 6 x43 * x45 + 58 x43 * x52 + 46 x43 * x58 - 26 x44 * x47
   - 8 x44 * x49 + 76 x44 * x50 - 72 x44 * x52 + 82 x44 * x57
   + 20 x45 * x54 - 14 x45 * x57 + 42 x46 * x58 - 28 x47 * x48
   + 76 x47 * x57 - 34 x47 * x59 - 62 x48 * x54 - 36 x48 * x58
   - 40 x49 * x51 + 76 x49 * x54 + 92 x50 * x55 - 10 x50 * x57 + 20 x51 ^2
   - 22 x51 * x55 + 66 x51 * x56 + 33 x52 ^2 - 66 x52 * x56 - 44 x52 * x57
   + 78 x53 * x55 + 94 x54 * x56 + 54 x55 * x56 - 34 x55 * x58
   + 46 x56 * x57 - 56 x56 * x58 ] / 2 
Subject To
Bounds
 x0 <= 1
 x1 <= 1
 x2 <= 1
 x3 <= 1
 x4 <= 1
 x5 <= 1
 x6 <= 1
 x7 <= 1
 x8 <= 1
 x9 <= 1
 x10 <= 1
 x11 <= 1
 x12 <= 1
 x13 <= 1
 x14 <= 1
 x15 <= 1
 x16 <= 1
 x17 <= 1
 x18 <= 1
 x19 <= 1
 x20 <= 1
 x21 <= 1
 x22 <= 1
 x23 <= 1
 x24 <= 1
 x25 <= 1
 x26 <= 1
 x27 <= 1
 x28 <= 1
 x29 <= 1
 x30 <= 1
 x31 <= 1
 x32 <= 1
 x33 <= 1
 x34 <= 1
 x35 <= 1
 x36 <= 1
 x37 <= 1
 x38 <= 1
 x39 <= 1
 x40 <= 1
 x41 <= 1
 x42 <= 1
 x43 <= 1
 x44 <= 1
 x45 <= 1
 x46 <= 1
 x47 <= 1
 x48 <= 1
 x49 <= 1
 x50 <= 1
 x51 <= 1
 x52 <= 1
 x53 <= 1
 x54 <= 1
 x55 <= 1
 x56 <= 1
 x57 <= 1
 x58 <= 1
 x59 <= 1
End
